Futhark/hardcode.tsp
NAME: hardcode5
TYPE: TSP
COMMENT: 5 Staedte Schweiz (Fricker)
DIMENSION: 5
EDGE_WEIGHT_TYPE: EXPLICIT
EDGE_WEIGHT_FORMAT: FULL_MATRIX 
EDGE_WEIGHT_SECTION
0 4 6 8 3          
4 0 4 5 2
6 4 0 2 3
8 5 2 0 4
3 2 3 4 0
EOF
