Data/hardcode.txt
5i32
2i64
[0i32, 4i32, 6i32, 8i32, 3i32, 4i32, 0i32, 4i32, 5i32, 2i32, 6i32, 4i32, 0i32, 2i32, 3i32, 8i32, 5i32, 2i32, 0i32, 4i32, 3i32, 2i32, 3i32, 4i32, 0i32]